FourierSAT_Github_AIJ/benchmarks/MAXSAT_benchmarks/3/bipartite/maxcut-140-630-0.8/maxcut-140-630-0.8-3.cnf
c strEdges: 125  randomEdges: 504 
c degrees:  1  2 
c girth: Inf max: -43.604516  
c Hgirth mixed MAXCUT instance
c generated from an undirected graph
c to solve unweighted MaxCut
p cnf 140 1258
38 108 0
-38 -108 0
86 92 0
-86 -92 0
86 17 0
-86 -17 0
62 13 0
-62 -13 0
62 107 0
-62 -107 0
85 34 0
-85 -34 0
85 45 0
-85 -45 0
53 93 0
-53 -93 0
53 29 0
-53 -29 0
61 18 0
-61 -18 0
61 19 0
-61 -19 0
14 37 0
-14 -37 0
14 21 0
-14 -21 0
111 70 0
-111 -70 0
111 132 0
-111 -132 0
80 82 0
-80 -82 0
80 76 0
-80 -76 0
11 21 0
-11 -21 0
28 42 0
-28 -42 0
139 125 0
-139 -125 0
139 135 0
-139 -135 0
79 130 0
-79 -130 0
79 32 0
-79 -32 0
27 16 0
-27 -16 0
27 96 0
-27 -96 0
2 135 0
-2 -135 0
2 51 0
-2 -51 0
91 39 0
-91 -39 0
91 92 0
-91 -92 0
127 58 0
-127 -58 0
127 35 0
-127 -35 0
5 9 0
-5 -9 0
5 58 0
-5 -58 0
110 107 0
-110 -107 0
78 40 0
-78 -40 0
78 34 0
-78 -34 0
72 29 0
-72 -29 0
72 90 0
-72 -90 0
43 133 0
-43 -133 0
43 129 0
-43 -129 0
140 96 0
-140 -96 0
140 63 0
-140 -63 0
44 124 0
-44 -124 0
89 134 0
-89 -134 0
59 45 0
-59 -45 0
59 105 0
-59 -105 0
47 76 0
-47 -76 0
47 25 0
-47 -25 0
88 8 0
-88 -8 0
50 99 0
-50 -99 0
50 119 0
-50 -119 0
57 132 0
-57 -132 0
57 64 0
-57 -64 0
87 119 0
-87 -119 0
87 81 0
-87 -81 0
121 90 0
-121 -90 0
121 82 0
-121 -82 0
33 56 0
-33 -56 0
33 115 0
-33 -115 0
54 98 0
-54 -98 0
100 69 0
-100 -69 0
123 101 0
-123 -101 0
123 99 0
-123 -99 0
7 136 0
-7 -136 0
36 67 0
-36 -67 0
36 26 0
-36 -26 0
49 77 0
-49 -77 0
49 103 0
-49 -103 0
46 115 0
-46 -115 0
46 39 0
-46 -39 0
114 1 0
-114 -1 0
114 125 0
-114 -125 0
12 103 0
-12 -103 0
12 8 0
-12 -8 0
52 137 0
-52 -137 0
52 77 0
-52 -77 0
106 129 0
-106 -129 0
106 23 0
-106 -23 0
41 24 0
-41 -24 0
122 95 0
-122 -95 0
122 69 0
-122 -69 0
117 65 0
-117 -65 0
117 24 0
-117 -24 0
120 71 0
-120 -71 0
120 48 0
-120 -48 0
74 25 0
-74 -25 0
74 16 0
-74 -16 0
94 128 0
-94 -128 0
94 56 0
-94 -56 0
109 64 0
-109 -64 0
109 15 0
-109 -15 0
30 17 0
-30 -17 0
30 18 0
-30 -18 0
104 126 0
-104 -126 0
104 137 0
-104 -137 0
75 35 0
-75 -35 0
6 20 0
-6 -20 0
6 101 0
-6 -101 0
22 81 0
-22 -81 0
22 67 0
-22 -67 0
131 116 0
-131 -116 0
112 51 0
-112 -51 0
112 130 0
-112 -130 0
31 60 0
-31 -60 0
31 20 0
-31 -20 0
102 97 0
-102 -97 0
102 136 0
-102 -136 0
84 48 0
-84 -48 0
73 113 0
-73 -113 0
73 42 0
-73 -42 0
10 105 0
-10 -105 0
118 32 0
-118 -32 0
118 70 0
-118 -70 0
55 19 0
-55 -19 0
55 9 0
-55 -9 0
4 23 0
-4 -23 0
4 95 0
-4 -95 0
83 68 0
-83 -68 0
83 126 0
-83 -126 0
138 26 0
-138 -26 0
138 1 0
-138 -1 0
66 63 0
-66 -63 0
66 128 0
-66 -128 0
3 15 0
-3 -15 0
3 65 0
-3 -65 0
91 12 0
-91 -12 0
131 103 0
-131 -103 0
24 23 0
-24 -23 0
53 67 0
-53 -67 0
127 94 0
-127 -94 0
61 4 0
-61 -4 0
134 67 0
-134 -67 0
91 100 0
-91 -100 0
120 98 0
-120 -98 0
129 126 0
-129 -126 0
12 56 0
-12 -56 0
44 63 0
-44 -63 0
102 32 0
-102 -32 0
127 76 0
-127 -76 0
82 51 0
-82 -51 0
44 4 0
-44 -4 0
100 107 0
-100 -107 0
44 45 0
-44 -45 0
5 137 0
-5 -137 0
89 114 0
-89 -114 0
77 116 0
-77 -116 0
28 19 0
-28 -19 0
121 116 0
-121 -116 0
7 75 0
-7 -75 0
61 117 0
-61 -117 0
4 77 0
-4 -77 0
66 1 0
-66 -1 0
114 84 0
-114 -84 0
52 8 0
-52 -8 0
18 130 0
-18 -130 0
78 95 0
-78 -95 0
106 77 0
-106 -77 0
43 118 0
-43 -118 0
120 90 0
-120 -90 0
49 40 0
-49 -40 0
102 15 0
-102 -15 0
52 138 0
-52 -138 0
43 120 0
-43 -120 0
44 100 0
-44 -100 0
130 63 0
-130 -63 0
131 45 0
-131 -45 0
14 20 0
-14 -20 0
49 125 0
-49 -125 0
66 17 0
-66 -17 0
16 133 0
-16 -133 0
4 24 0
-4 -24 0
38 130 0
-38 -130 0
127 10 0
-127 -10 0
85 23 0
-85 -23 0
31 132 0
-31 -132 0
10 1 0
-10 -1 0
92 23 0
-92 -23 0
132 136 0
-132 -136 0
47 93 0
-47 -93 0
44 113 0
-44 -113 0
12 116 0
-12 -116 0
66 116 0
-66 -116 0
121 26 0
-121 -26 0
65 71 0
-65 -71 0
105 32 0
-105 -32 0
140 67 0
-140 -67 0
43 10 0
-43 -10 0
11 15 0
-11 -15 0
53 5 0
-53 -5 0
120 104 0
-120 -104 0
1 105 0
-1 -105 0
3 126 0
-3 -126 0
93 40 0
-93 -40 0
2 109 0
-2 -109 0
46 22 0
-46 -22 0
79 10 0
-79 -10 0
94 16 0
-94 -16 0
136 19 0
-136 -19 0
33 90 0
-33 -90 0
56 35 0
-56 -35 0
44 3 0
-44 -3 0
54 35 0
-54 -35 0
11 47 0
-11 -47 0
43 42 0
-43 -42 0
61 83 0
-61 -83 0
105 68 0
-105 -68 0
22 1 0
-22 -1 0
47 126 0
-47 -126 0
79 104 0
-79 -104 0
94 82 0
-94 -82 0
39 69 0
-39 -69 0
39 128 0
-39 -128 0
61 28 0
-61 -28 0
27 87 0
-27 -87 0
53 92 0
-53 -92 0
59 98 0
-59 -98 0
73 13 0
-73 -13 0
38 3 0
-38 -3 0
62 123 0
-62 -123 0
130 129 0
-130 -129 0
132 26 0
-132 -26 0
72 100 0
-72 -100 0
18 37 0
-18 -37 0
131 70 0
-131 -70 0
130 51 0
-130 -51 0
73 26 0
-73 -26 0
66 107 0
-66 -107 0
112 34 0
-112 -34 0
83 39 0
-83 -39 0
6 119 0
-6 -119 0
92 99 0
-92 -99 0
120 134 0
-120 -134 0
61 71 0
-61 -71 0
73 81 0
-73 -81 0
89 54 0
-89 -54 0
89 129 0
-89 -129 0
27 101 0
-27 -101 0
80 45 0
-80 -45 0
84 116 0
-84 -116 0
2 132 0
-2 -132 0
94 92 0
-94 -92 0
7 134 0
-7 -134 0
133 35 0
-133 -35 0
134 1 0
-134 -1 0
34 60 0
-34 -60 0
44 129 0
-44 -129 0
40 97 0
-40 -97 0
46 74 0
-46 -74 0
88 100 0
-88 -100 0
129 20 0
-129 -20 0
66 65 0
-66 -65 0
104 75 0
-104 -75 0
24 97 0
-24 -97 0
86 99 0
-86 -99 0
62 45 0
-62 -45 0
125 119 0
-125 -119 0
121 49 0
-121 -49 0
109 104 0
-109 -104 0
16 71 0
-16 -71 0
67 77 0
-67 -77 0
85 83 0
-85 -83 0
45 113 0
-45 -113 0
109 16 0
-109 -16 0
72 66 0
-72 -66 0
61 30 0
-61 -30 0
6 68 0
-6 -68 0
46 107 0
-46 -107 0
49 115 0
-49 -115 0
10 136 0
-10 -136 0
59 40 0
-59 -40 0
137 25 0
-137 -25 0
109 22 0
-109 -22 0
28 113 0
-28 -113 0
5 44 0
-5 -44 0
130 133 0
-130 -133 0
109 125 0
-109 -125 0
85 60 0
-85 -60 0
88 99 0
-88 -99 0
109 137 0
-109 -137 0
106 131 0
-106 -131 0
53 117 0
-53 -117 0
70 129 0
-70 -129 0
98 1 0
-98 -1 0
52 48 0
-52 -48 0
2 124 0
-2 -124 0
111 122 0
-111 -122 0
117 1 0
-117 -1 0
16 107 0
-16 -107 0
22 3 0
-22 -3 0
62 111 0
-62 -111 0
93 105 0
-93 -105 0
24 20 0
-24 -20 0
10 35 0
-10 -35 0
138 76 0
-138 -76 0
59 58 0
-59 -58 0
44 56 0
-44 -56 0
140 90 0
-140 -90 0
5 12 0
-5 -12 0
89 93 0
-89 -93 0
80 100 0
-80 -100 0
44 8 0
-44 -8 0
65 26 0
-65 -26 0
87 20 0
-87 -20 0
74 132 0
-74 -132 0
72 73 0
-72 -73 0
92 29 0
-92 -29 0
109 9 0
-109 -9 0
86 71 0
-86 -71 0
38 89 0
-38 -89 0
41 32 0
-41 -32 0
41 83 0
-41 -83 0
8 24 0
-8 -24 0
117 20 0
-117 -20 0
89 102 0
-89 -102 0
49 1 0
-49 -1 0
128 35 0
-128 -35 0
54 68 0
-54 -68 0
62 99 0
-62 -99 0
117 26 0
-117 -26 0
119 90 0
-119 -90 0
87 15 0
-87 -15 0
41 34 0
-41 -34 0
112 95 0
-112 -95 0
110 105 0
-110 -105 0
100 34 0
-100 -34 0
38 73 0
-38 -73 0
43 93 0
-43 -93 0
62 7 0
-62 -7 0
58 113 0
-58 -113 0
80 74 0
-80 -74 0
46 23 0
-46 -23 0
66 29 0
-66 -29 0
71 23 0
-71 -23 0
37 99 0
-37 -99 0
93 96 0
-93 -96 0
85 81 0
-85 -81 0
124 60 0
-124 -60 0
135 95 0
-135 -95 0
87 70 0
-87 -70 0
83 129 0
-83 -129 0
16 77 0
-16 -77 0
38 34 0
-38 -34 0
119 51 0
-119 -51 0
82 128 0
-82 -128 0
49 134 0
-49 -134 0
30 124 0
-30 -124 0
72 19 0
-72 -19 0
73 95 0
-73 -95 0
2 76 0
-2 -76 0
14 136 0
-14 -136 0
108 76 0
-108 -76 0
66 39 0
-66 -39 0
10 56 0
-10 -56 0
52 10 0
-52 -10 0
61 2 0
-61 -2 0
91 17 0
-91 -17 0
36 133 0
-36 -133 0
40 77 0
-40 -77 0
44 108 0
-44 -108 0
42 16 0
-42 -16 0
46 112 0
-46 -112 0
4 92 0
-4 -92 0
76 17 0
-76 -17 0
71 126 0
-71 -126 0
31 118 0
-31 -118 0
123 69 0
-123 -69 0
131 20 0
-131 -20 0
116 48 0
-116 -48 0
132 25 0
-132 -25 0
94 26 0
-94 -26 0
127 12 0
-127 -12 0
86 104 0
-86 -104 0
118 19 0
-118 -19 0
120 126 0
-120 -126 0
78 59 0
-78 -59 0
122 125 0
-122 -125 0
100 90 0
-100 -90 0
106 109 0
-106 -109 0
41 18 0
-41 -18 0
41 1 0
-41 -1 0
127 37 0
-127 -37 0
45 68 0
-45 -68 0
80 11 0
-80 -11 0
38 21 0
-38 -21 0
46 94 0
-46 -94 0
119 35 0
-119 -35 0
38 111 0
-38 -111 0
104 98 0
-104 -98 0
127 78 0
-127 -78 0
70 17 0
-70 -17 0
39 133 0
-39 -133 0
86 29 0
-86 -29 0
139 107 0
-139 -107 0
53 4 0
-53 -4 0
87 22 0
-87 -22 0
72 60 0
-72 -60 0
31 40 0
-31 -40 0
22 45 0
-22 -45 0
21 45 0
-21 -45 0
62 34 0
-62 -34 0
117 105 0
-117 -105 0
125 68 0
-125 -68 0
46 4 0
-46 -4 0
55 133 0
-55 -133 0
69 60 0
-69 -60 0
78 108 0
-78 -108 0
139 64 0
-139 -64 0
60 48 0
-60 -48 0
79 82 0
-79 -82 0
70 45 0
-70 -45 0
121 129 0
-121 -129 0
50 74 0
-50 -74 0
85 68 0
-85 -68 0
22 138 0
-22 -138 0
89 19 0
-89 -19 0
125 128 0
-125 -128 0
131 66 0
-131 -66 0
127 75 0
-127 -75 0
85 88 0
-85 -88 0
7 56 0
-7 -56 0
130 58 0
-130 -58 0
54 108 0
-54 -108 0
109 71 0
-109 -71 0
44 81 0
-44 -81 0
37 71 0
-37 -71 0
44 6 0
-44 -6 0
16 63 0
-16 -63 0
49 83 0
-49 -83 0
62 29 0
-62 -29 0
83 81 0
-83 -81 0
91 8 0
-91 -8 0
46 90 0
-46 -90 0
4 83 0
-4 -83 0
58 126 0
-58 -126 0
9 64 0
-9 -64 0
110 75 0
-110 -75 0
18 58 0
-18 -58 0
127 92 0
-127 -92 0
128 60 0
-128 -60 0
125 23 0
-125 -23 0
66 23 0
-66 -23 0
112 77 0
-112 -77 0
96 20 0
-96 -20 0
55 60 0
-55 -60 0
46 83 0
-46 -83 0
30 13 0
-30 -13 0
103 26 0
-103 -26 0
131 65 0
-131 -65 0
115 103 0
-115 -103 0
62 131 0
-62 -131 0
6 98 0
-6 -98 0
82 64 0
-82 -64 0
59 54 0
-59 -54 0
73 96 0
-73 -96 0
99 101 0
-99 -101 0
80 73 0
-80 -73 0
43 8 0
-43 -8 0
7 73 0
-7 -73 0
94 32 0
-94 -32 0
108 77 0
-108 -77 0
26 63 0
-26 -63 0
104 18 0
-104 -18 0
41 51 0
-41 -51 0
70 115 0
-70 -115 0
114 99 0
-114 -99 0
31 25 0
-31 -25 0
91 29 0
-91 -29 0
16 126 0
-16 -126 0
53 125 0
-53 -125 0
135 32 0
-135 -32 0
73 70 0
-73 -70 0
86 113 0
-86 -113 0
61 130 0
-61 -130 0
106 96 0
-106 -96 0
61 27 0
-61 -27 0
109 31 0
-109 -31 0
38 87 0
-38 -87 0
11 103 0
-11 -103 0
127 39 0
-127 -39 0
38 77 0
-38 -77 0
94 135 0
-94 -135 0
39 81 0
-39 -81 0
43 13 0
-43 -13 0
135 8 0
-135 -8 0
45 101 0
-45 -101 0
57 84 0
-57 -84 0
31 77 0
-31 -77 0
98 24 0
-98 -24 0
62 49 0
-62 -49 0
10 128 0
-10 -128 0
115 105 0
-115 -105 0
99 48 0
-99 -48 0
86 133 0
-86 -133 0
33 94 0
-33 -94 0
87 118 0
-87 -118 0
83 108 0
-83 -108 0
50 77 0
-50 -77 0
50 114 0
-50 -114 0
28 21 0
-28 -21 0
132 69 0
-132 -69 0
78 89 0
-78 -89 0
131 35 0
-131 -35 0
130 25 0
-130 -25 0
139 105 0
-139 -105 0
38 125 0
-38 -125 0
44 130 0
-44 -130 0
66 21 0
-66 -21 0
14 57 0
-14 -57 0
46 82 0
-46 -82 0
12 51 0
-12 -51 0
112 97 0
-112 -97 0
88 16 0
-88 -16 0
7 37 0
-7 -37 0
42 15 0
-42 -15 0
14 48 0
-14 -48 0
28 6 0
-28 -6 0
57 133 0
-57 -133 0
77 97 0
-77 -97 0
85 106 0
-85 -106 0
78 98 0
-78 -98 0
28 20 0
-28 -20 0
94 105 0
-94 -105 0
79 115 0
-79 -115 0
1 20 0
-1 -20 0
111 46 0
-111 -46 0
17 63 0
-17 -63 0
57 131 0
-57 -131 0
127 117 0
-127 -117 0
11 93 0
-11 -93 0
86 22 0
-86 -22 0
43 46 0
-43 -46 0
63 15 0
-63 -15 0
135 64 0
-135 -64 0
28 125 0
-28 -125 0
120 10 0
-120 -10 0
138 103 0
-138 -103 0
123 35 0
-123 -35 0
123 26 0
-123 -26 0
54 113 0
-54 -113 0
73 134 0
-73 -134 0
112 107 0
-112 -107 0
121 66 0
-121 -66 0
106 92 0
-106 -92 0
102 98 0
-102 -98 0
7 63 0
-7 -63 0
36 39 0
-36 -39 0
10 101 0
-10 -101 0
53 139 0
-53 -139 0
11 106 0
-11 -106 0
38 8 0
-38 -8 0
14 127 0
-14 -127 0
67 71 0
-67 -71 0
78 48 0
-78 -48 0
106 122 0
-106 -122 0
18 40 0
-18 -40 0
25 17 0
-25 -17 0
38 140 0
-38 -140 0
90 24 0
-90 -24 0
42 129 0
-42 -129 0
50 131 0
-50 -131 0
99 90 0
-99 -90 0
83 82 0
-83 -82 0
79 30 0
-79 -30 0
80 134 0
-80 -134 0
65 35 0
-65 -35 0
36 77 0
-36 -77 0
33 21 0
-33 -21 0
72 92 0
-72 -92 0
31 134 0
-31 -134 0
41 20 0
-41 -20 0
10 98 0
-10 -98 0
76 95 0
-76 -95 0
140 64 0
-140 -64 0
108 35 0
-108 -35 0
47 129 0
-47 -129 0
106 4 0
-106 -4 0
66 95 0
-66 -95 0
89 40 0
-89 -40 0
74 71 0
-74 -71 0
111 123 0
-111 -123 0
93 60 0
-93 -60 0
110 29 0
-110 -29 0
53 48 0
-53 -48 0
33 100 0
-33 -100 0
117 71 0
-117 -71 0
93 17 0
-93 -17 0
54 23 0
-54 -23 0
115 116 0
-115 -116 0
89 58 0
-89 -58 0
21 103 0
-21 -103 0
91 54 0
-91 -54 0
62 73 0
-62 -73 0
110 103 0
-110 -103 0
139 25 0
-139 -25 0
92 82 0
-92 -82 0
85 11 0
-85 -11 0
52 132 0
-52 -132 0
66 133 0
-66 -133 0
59 66 0
-59 -66 0
121 119 0
-121 -119 0
114 81 0
-114 -81 0
38 100 0
-38 -100 0
61 138 0
-61 -138 0
83 113 0
-83 -113 0
125 101 0
-125 -101 0
106 137 0
-106 -137 0
21 9 0
-21 -9 0
109 6 0
-109 -6 0
38 43 0
-38 -43 0
7 58 0
-7 -58 0
67 15 0
-67 -15 0
138 34 0
-138 -34 0
25 81 0
-25 -81 0
27 35 0
-27 -35 0
2 99 0
-2 -99 0
52 25 0
-52 -25 0
38 17 0
-38 -17 0
87 82 0
-87 -82 0
93 77 0
-93 -77 0
117 13 0
-117 -13 0
79 37 0
-79 -37 0
47 22 0
-47 -22 0
88 71 0
-88 -71 0
91 134 0
-91 -134 0
38 127 0
-38 -127 0
82 16 0
-82 -16 0
9 137 0
-9 -137 0
133 20 0
-133 -20 0
83 45 0
-83 -45 0
